s td 71 8 84
b 1 11 14 16
b 2 12 13 15
b 3 9 13 15
b 4 10 14 16
b 5 9 15 75
b 6 10 16 76
b 7 47 50 52
b 8 48 49 51
b 9 49 51 57
b 10 50 52 58
b 11 51 57 81
b 12 52 58 82
b 13 73 76 78
b 14 74 75 77
b 15 9 75 77
b 16 10 76 78
b 17 9 23 77
b 18 10 24 78
b 19 79 82 84
b 20 80 81 83
b 21 57 81 83
b 22 58 82 84
b 23 33 57 83
b 24 34 58 84
b 25 1 5 6 9 10 21 22 25
b 26 4 5 6 9 10 25
b 27 2 4 5 10 25
b 28 2 4 7 25
b 29 1 5 9 10 21 22 25 26
b 30 1 3 5 9 26
b 31 1 3 8 26
b 32 10 19 21 22 25 26
b 33 10 17 19 22 26
b 34 10 17 19 24
b 35 9 21 22 23 25 26
b 36 18 21 23 26
b 37 20 22 23 25
b 38 5 6 21 22 35 36 69 70
b 39 21 22 35 36 61 69 70 72
b 40 35 36 53 54 61 72
b 41 27 28 35 36 53 54 61
b 42 27 28 35 53 54 56 61
b 43 27 28 31 35 53 54 56
b 44 27 31 35 53 56 58
b 45 27 31 34 35 58
b 46 29 31 34 35
b 47 31 54 56 59
b 48 27 28 35 53 54 60 61
b 49 27 28 33 35 54 60 61
b 50 27 32 33 35 60
b 51 30 32 33 35
b 52 33 54 57 60 61
b 53 55 57 60 61
b 54 53 54 62 72
b 55 21 22 61 69 70 71 72
b 56 22 66 69 70 71 72
b 57 22 63 66 70 72
b 58 22 63 66 68
b 59 21 64 69 70 71 72
b 60 21 64 65 70 71
b 61 21 64 65 67
b 62 5 6 35 36 44 69 70
b 63 5 6 35 43 44 69 70
b 64 5 6 42 43 44 69 70
b 65 5 6 41 42 43 44 69
b 66 6 38 41 42 43 44
b 67 6 37 38 42 44
b 68 6 37 38 46
b 69 5 39 41 42 43 44
b 70 5 39 40 42 43
b 71 5 39 40 45
1 4
2 3
3 5
4 6
5 15
6 16
7 10
8 9
9 11
10 12
11 21
12 22
13 16
14 15
15 17
16 18
17 35
18 34
19 22
20 21
21 23
22 24
23 52
24 45
25 26
25 29
25 38
26 27
27 28
29 30
29 32
29 35
30 31
32 33
33 34
35 36
35 37
38 39
38 62
39 40
39 55
40 41
40 54
41 42
41 48
42 43
43 44
43 47
44 45
45 46
48 49
49 50
49 52
50 51
52 53
55 56
55 59
56 57
57 58
59 60
60 61
62 63
63 64
64 65
65 66
65 69
66 67
67 68
69 70
70 71
